NAME : PR439B
TYPE : PDTSP
DIMENSION : 439
EDGE_WEIGHT_TYPE : EUC_2D
NODE_COORD_SECTION
1 7100 11000
2 7200 11000
3 7200 11000
4 7400 11000
5 7500 11000
6 7600 11000
7 7700 11000
8 7800 11000
9 7900 11000
10 8100 11000
11 8100 11000
12 8100 11000
13 8300 11000
14 8400 11000
15 8500 11000
16 8600 11000
17 8800 11000
18 12000 11000
19 12000 11000
20 12000 11000
21 12000 11000
22 12000 11000
23 11000 11000
24 11000 11000
25 11000 11000
26 10000 11000
27 10000 11000
28 10000 11000
29 10000 11000
30 9900 11000
31 9800 11000
32 9400 11000
33 8800 11000
34 8600 11000
35 8500 11000
36 8400 11000
37 8300 11000
38 8100 11000
39 7900 11000
40 7900 11000
41 7800 11000
42 7800 11000
43 7700 11000
44 7600 11000
45 7600 11000
46 7500 11000
47 7400 11000
48 7300 11000
49 7400 11000
50 7200 11000
51 7100 11000
52 7100 11000
53 7100 10000
54 7200 10000
55 7300 10000
56 7400 10000
57 8300 10000
58 8600 10000
59 9000 10000
60 9100 10000
61 9100 10000
62 9400 11000
63 10000 11000
64 11000 11000
65 11000 11000
66 12000 11000
67 12000 11000
68 12000 10000
69 12000 10000
70 12000 10000
71 12000 10000
72 11000 10000
73 10000 10000
74 10000 10000
75 9300 10000
76 9200 10000
77 9000 10000
78 8800 10000
79 8100 10000
80 7900 10000
81 7800 10000
82 7600 10000
83 5000 10000
84 4800 10000
85 4500 10000
86 8800 10000
87 9000 10000
88 11000 10000
89 11000 10000
90 12000 10000
91 12000 10000
92 12000 9900
93 12000 9900
94 12000 9900
95 13000 9900
96 13000 9900
97 13000 9900
98 13000 9800
99 13000 9600
100 13000 9800
101 13000 9600
102 12000 9800
103 12000 9600
104 12000 9700
105 12000 9700
106 11000 9700
107 11000 9700
108 11000 9600
109 11000 9600
110 10000 9300
111 10000 9300
112 11000 9300
113 12000 9300
114 12000 9400
115 12000 9500
116 12000 9300
117 12000 9500
118 12000 9300
119 12000 9300
120 12000 9500
121 12000 9300
122 13000 9300
123 13000 9400
124 13000 9300
125 13000 9400
126 13000 9300
127 13000 9300
128 13000 9500
129 13000 9300
130 13000 9400
131 13000 9400
132 14000 9400
133 14000 9400
134 13000 9000
135 13000 9000
136 13000 9000
137 13000 9000
138 13000 8900
139 12000 9000
140 12000 9000
141 12000 9000
142 12000 9000
143 12000 8900
144 11000 9200
145 11000 9000
146 11000 9200
147 11000 9100
148 11000 9000
149 5200 8800
150 12000 8700
151 12000 8800
152 12000 8900
153 12000 8700
154 12000 8600
155 12000 8600
156 12000 8700
157 12000 8600
158 13000 8700
159 13000 8600
160 13000 8700
161 13000 8600
162 13000 8800
163 13000 8900
164 13000 8900
165 14000 8900
166 13000 8700
167 14000 8900
168 14000 8500
169 14000 8600
170 14000 8500
171 13000 8300
172 13000 8400
173 13000 8400
174 13000 8400
175 13000 8400
176 13000 8300
177 13000 8400
178 13000 8300
179 12000 8400
180 12000 8300
181 12000 8400
182 12000 8400
183 12000 8300
184 12000 8300
185 11000 8600
186 4900 8500
187 6200 8300
188 6600 8300
189 7000 8300
190 11000 8100
191 12000 8100
192 12000 8300
193 12000 8100
194 12000 8100
195 12000 8100
196 12000 8100
197 12000 8100
198 12000 8000
199 13000 8100
200 13000 8100
201 13000 8100
202 13000 8100
203 13000 8100
204 13000 8300
205 13000 8100
206 13000 8200
207 14000 8200
208 14000 8100
209 14000 7700
210 13000 7700
211 13000 7700
212 13000 7700
213 13000 7700
214 13000 7700
215 13000 7700
216 12000 7800
217 12000 7700
218 12000 7700
219 12000 7700
220 12000 7700
221 12000 7700
222 12000 7700
223 11000 7700
224 11000 7800
225 6600 7900
226 4800 7800
227 4600 7800
228 4600 7400
229 4800 7400
230 6200 7500
231 6800 7600
232 7100 7600
233 11000 7500
234 12000 7500
235 12000 7500
236 12000 7500
237 12000 7500
238 12000 7500
239 12000 7500
240 12000 7500
241 12000 7600
242 13000 7500
243 13000 7500
244 13000 7500
245 13000 7500
246 13000 7500
247 13000 7500
248 13000 7500
249 13000 7500
250 13000 7700
251 14000 7700
252 14000 7400
253 14000 7600
254 14000 7200
255 14000 7300
256 13000 7200
257 13000 7200
258 13000 7200
259 13000 7200
260 13000 7200
261 13000 7200
262 13000 7200
263 13000 7200
264 12000 7200
265 12000 7200
266 12000 7200
267 12000 7200
268 12000 7200
269 12000 7200
270 12000 7200
271 12000 7200
272 11000 7200
273 11000 7100
274 11000 7100
275 11000 7100
276 11000 7100
277 11000 7100
278 11000 7100
279 10000 7100
280 7100 7200
281 5800 7300
282 5400 7300
283 4400 7300
284 4400 6900
285 7100 7100
286 7300 7000
287 7300 6900
288 7800 6900
289 7900 6900
290 8200 6900
291 8400 6900
292 8600 6900
293 8800 6900
294 10000 6800
295 11000 6800
296 11000 6800
297 11000 6800
298 11000 6800
299 11000 6800
300 11000 6800
301 11000 7000
302 12000 6900
303 12000 6800
304 12000 6800
305 12000 7000
306 12000 7000
307 12000 7000
308 12000 7000
309 12000 7000
310 13000 7000
311 13000 6900
312 13000 7000
313 13000 7000
314 13000 7000
315 13000 7000
316 13000 7000
317 13000 6500
318 13000 6600
319 13000 6500
320 13000 6600
321 13000 6600
322 13000 6700
323 13000 6600
324 12000 6600
325 12000 6600
326 12000 6600
327 12000 6600
328 12000 6600
329 12000 6600
330 12000 6700
331 12000 6600
332 11000 6600
333 11000 6600
334 11000 6600
335 11000 6600
336 11000 6600
337 11000 6600
338 11000 6600
339 10000 6600
340 7100 6700
341 5700 6700
342 5200 6700
343 5100 6600
344 4700 6600
345 7700 6400
346 7800 6400
347 7800 6500
348 7800 6400
349 7900 6500
350 8100 6400
351 8200 6400
352 8200 6500
353 8300 6400
354 8400 6500
355 8600 6400
356 8600 6400
357 8600 6500
358 8800 6400
359 8800 6500
360 10000 6300
361 11000 6300
362 11000 6300
363 11000 6300
364 11000 6300
365 11000 6300
366 11000 6300
367 11000 6100
368 11000 6100
369 11000 6100
370 10000 6100
371 5600 5700
372 5600 5600
373 5700 5800
374 6200 5800
375 6200 5600
376 7600 5800
377 7900 5800
378 11000 5800
379 7900 5300
380 7600 5300
381 6200 5400
382 5700 5400
383 5600 5400
384 5600 5200
385 11000 5300
386 11000 5100
387 11000 5100
388 11000 4900
389 7900 4900
390 7700 4900
391 6200 5000
392 6200 4900
393 5700 4900
394 5600 5000
395 5600 4900
396 5600 4500
397 5600 4700
398 5700 4700
399 6200 4700
400 11000 4400
401 11000 4700
402 13000 4300
403 4200 4100
404 13000 4100
405 13000 3700
406 6300 3600
407 5900 3600
408 4200 3700
409 4200 3500
410 4500 3300
411 4500 3500
412 5000 3300
413 5000 3500
414 7900 3300
415 11000 3500
416 11000 3500
417 13000 3500
418 13000 3100
419 8300 3000
420 8100 3000
421 7900 3200
422 5000 3000
423 5000 3200
424 4500 3000
425 4500 3200
426 4200 3100
427 4700 2700
428 13000 2900
429 13000 2500
430 4700 2500
431 13000 2300
432 4700 1800
433 4700 2000
434 2000 4000
435 2100 5700
436 2000 5600
437 1900 5500
438 1800 5400
439 2100 6500
PICKUP_AND_DELIVERY_SECTION
1 0 0 0 0 0 0
2 0 0 0 0 45 0
3 0 0 0 0 46 0
4 0 0 0 0 8 0
5 0 0 0 0 0 42
6 0 0 0 0 53 0
7 0 0 0 0 10 0
8 0 0 0 0 0 4
9 0 0 0 0 56 0
10 0 0 0 0 0 7
11 0 0 0 0 37 0
12 0 0 0 0 0 35
13 0 0 0 0 34 0
14 0 0 0 0 0 31
15 0 0 0 0 0 36
16 0 0 0 0 0 30
17 0 0 0 0 58 0
18 0 0 0 0 22 0
19 0 0 0 0 67 0
20 0 0 0 0 92 0
21 0 0 0 0 106 0
22 0 0 0 0 0 18
23 0 0 0 0 183 0
24 0 0 0 0 114 0
25 0 0 0 0 0 73
26 0 0 0 0 27 0
27 0 0 0 0 0 26
28 0 0 0 0 55 0
29 0 0 0 0 65 0
30 0 0 0 0 16 0
31 0 0 0 0 14 0
32 0 0 0 0 33 0
33 0 0 0 0 0 32
34 0 0 0 0 0 13
35 0 0 0 0 12 0
36 0 0 0 0 15 0
37 0 0 0 0 0 11
38 0 0 0 0 0 40
39 0 0 0 0 43 0
40 0 0 0 0 38 0
41 0 0 0 0 61 0
42 0 0 0 0 5 0
43 0 0 0 0 0 39
44 0 0 0 0 0 47
45 0 0 0 0 0 2
46 0 0 0 0 0 3
47 0 0 0 0 44 0
48 0 0 0 0 54 0
49 0 0 0 0 50 0
50 0 0 0 0 0 49
51 0 0 0 0 52 0
52 0 0 0 0 0 51
53 0 0 0 0 0 6
54 0 0 0 0 0 48
55 0 0 0 0 0 28
56 0 0 0 0 0 9
57 0 0 0 0 81 0
58 0 0 0 0 0 17
59 0 0 0 0 0 78
60 0 0 0 0 0 83
61 0 0 0 0 0 41
62 0 0 0 0 75 0
63 0 0 0 0 102 0
64 0 0 0 0 0 88
65 0 0 0 0 0 29
66 0 0 0 0 70 0
67 0 0 0 0 0 19
68 0 0 0 0 0 145
69 0 0 0 0 0 90
70 0 0 0 0 0 66
71 0 0 0 0 72 0
72 0 0 0 0 0 71
73 0 0 0 0 25 0
74 0 0 0 0 0 77
75 0 0 0 0 0 62
76 0 0 0 0 285 0
77 0 0 0 0 74 0
78 0 0 0 0 59 0
79 0 0 0 0 0 82
80 0 0 0 0 0 358
81 0 0 0 0 0 57
82 0 0 0 0 79 0
83 0 0 0 0 60 0
84 0 0 0 0 376 0
85 0 0 0 0 283 0
86 0 0 0 0 0 87
87 0 0 0 0 86 0
88 0 0 0 0 64 0
89 0 0 0 0 107 0
90 0 0 0 0 69 0
91 0 0 0 0 0 104
92 0 0 0 0 0 20
93 0 0 0 0 0 94
94 0 0 0 0 93 0
95 0 0 0 0 122 0
96 0 0 0 0 0 133
97 0 0 0 0 101 0
98 0 0 0 0 123 0
99 0 0 0 0 0 129
100 0 0 0 0 0 125
101 0 0 0 0 0 97
102 0 0 0 0 0 63
103 0 0 0 0 118 0
104 0 0 0 0 91 0
105 0 0 0 0 144 0
106 0 0 0 0 0 21
107 0 0 0 0 0 89
108 0 0 0 0 0 320
109 0 0 0 0 0 148
110 0 0 0 0 112 0
111 0 0 0 0 185 0
112 0 0 0 0 0 110
113 0 0 0 0 0 143
114 0 0 0 0 0 24
115 0 0 0 0 116 0
116 0 0 0 0 0 115
117 0 0 0 0 0 165
118 0 0 0 0 0 103
119 0 0 0 0 0 142
120 0 0 0 0 161 0
121 0 0 0 0 166 0
122 0 0 0 0 0 95
123 0 0 0 0 0 98
124 0 0 0 0 160 0
125 0 0 0 0 100 0
126 0 0 0 0 0 127
127 0 0 0 0 126 0
128 0 0 0 0 0 167
129 0 0 0 0 99 0
130 0 0 0 0 292 0
131 0 0 0 0 0 163
132 0 0 0 0 164 0
133 0 0 0 0 96 0
134 0 0 0 0 0 135
135 0 0 0 0 134 0
136 0 0 0 0 0 162
137 0 0 0 0 0 139
138 0 0 0 0 0 150
139 0 0 0 0 137 0
140 0 0 0 0 141 0
141 0 0 0 0 0 140
142 0 0 0 0 119 0
143 0 0 0 0 113 0
144 0 0 0 0 0 105
145 0 0 0 0 68 0
146 0 0 0 0 147 0
147 0 0 0 0 0 146
148 0 0 0 0 109 0
149 0 0 0 0 187 0
150 0 0 0 0 138 0
151 0 0 0 0 182 0
152 0 0 0 0 153 0
153 0 0 0 0 0 152
154 0 0 0 0 156 0
155 0 0 0 0 0 180
156 0 0 0 0 0 154
157 0 0 0 0 0 177
158 0 0 0 0 327 0
159 0 0 0 0 0 173
160 0 0 0 0 0 124
161 0 0 0 0 0 120
162 0 0 0 0 136 0
163 0 0 0 0 131 0
164 0 0 0 0 0 132
165 0 0 0 0 117 0
166 0 0 0 0 0 121
167 0 0 0 0 128 0
168 0 0 0 0 205 0
169 0 0 0 0 0 174
170 0 0 0 0 0 172
171 0 0 0 0 0 206
172 0 0 0 0 170 0
173 0 0 0 0 159 0
174 0 0 0 0 169 0
175 0 0 0 0 199 0
176 0 0 0 0 204 0
177 0 0 0 0 157 0
178 0 0 0 0 0 198
179 0 0 0 0 200 0
180 0 0 0 0 155 0
181 0 0 0 0 192 0
182 0 0 0 0 0 151
183 0 0 0 0 0 23
184 0 0 0 0 0 195
185 0 0 0 0 0 111
186 0 0 0 0 230 0
187 0 0 0 0 0 149
188 0 0 0 0 0 281
189 0 0 0 0 0 353
190 0 0 0 0 191 0
191 0 0 0 0 0 190
192 0 0 0 0 0 181
193 0 0 0 0 0 194
194 0 0 0 0 193 0
195 0 0 0 0 184 0
196 0 0 0 0 218 0
197 0 0 0 0 0 219
198 0 0 0 0 178 0
199 0 0 0 0 0 175
200 0 0 0 0 0 179
201 0 0 0 0 202 0
202 0 0 0 0 0 201
203 0 0 0 0 207 0
204 0 0 0 0 0 176
205 0 0 0 0 0 168
206 0 0 0 0 171 0
207 0 0 0 0 0 203
208 0 0 0 0 211 0
209 0 0 0 0 0 256
210 0 0 0 0 259 0
211 0 0 0 0 0 208
212 0 0 0 0 0 214
213 0 0 0 0 0 244
214 0 0 0 0 212 0
215 0 0 0 0 0 243
216 0 0 0 0 0 431
217 0 0 0 0 0 221
218 0 0 0 0 0 196
219 0 0 0 0 197 0
220 0 0 0 0 240 0
221 0 0 0 0 217 0
222 0 0 0 0 237 0
223 0 0 0 0 235 0
224 0 0 0 0 303 0
225 0 0 0 0 291 0
226 0 0 0 0 342 0
227 0 0 0 0 343 0
228 0 0 0 0 0 282
229 0 0 0 0 0 439
230 0 0 0 0 0 186
231 0 0 0 0 0 421
232 0 0 0 0 280 0
233 0 0 0 0 0 270
234 0 0 0 0 0 269
235 0 0 0 0 0 223
236 0 0 0 0 239 0
237 0 0 0 0 0 222
238 0 0 0 0 272 0
239 0 0 0 0 0 236
240 0 0 0 0 0 220
241 0 0 0 0 0 367
242 0 0 0 0 263 0
243 0 0 0 0 215 0
244 0 0 0 0 213 0
245 0 0 0 0 246 0
246 0 0 0 0 0 245
247 0 0 0 0 258 0
248 0 0 0 0 0 260
249 0 0 0 0 0 250
250 0 0 0 0 249 0
251 0 0 0 0 0 253
252 0 0 0 0 254 0
253 0 0 0 0 251 0
254 0 0 0 0 0 252
255 0 0 0 0 316 0
256 0 0 0 0 209 0
257 0 0 0 0 314 0
258 0 0 0 0 0 247
259 0 0 0 0 0 210
260 0 0 0 0 248 0
261 0 0 0 0 0 325
262 0 0 0 0 0 265
263 0 0 0 0 0 242
264 0 0 0 0 0 309
265 0 0 0 0 262 0
266 0 0 0 0 268 0
267 0 0 0 0 0 308
268 0 0 0 0 0 266
269 0 0 0 0 234 0
270 0 0 0 0 233 0
271 0 0 0 0 0 302
272 0 0 0 0 0 238
273 0 0 0 0 0 360
274 0 0 0 0 330 0
275 0 0 0 0 0 331
276 0 0 0 0 0 312
277 0 0 0 0 0 437
278 0 0 0 0 0 299
279 0 0 0 0 336 0
280 0 0 0 0 0 232
281 0 0 0 0 188 0
282 0 0 0 0 228 0
283 0 0 0 0 0 85
284 0 0 0 0 382 0
285 0 0 0 0 0 76
286 0 0 0 0 379 0
287 0 0 0 0 0 373
288 0 0 0 0 351 0
289 0 0 0 0 352 0
290 0 0 0 0 0 346
291 0 0 0 0 0 225
292 0 0 0 0 0 130
293 0 0 0 0 0 356
294 0 0 0 0 338 0
295 0 0 0 0 297 0
296 0 0 0 0 0 385
297 0 0 0 0 0 295
298 0 0 0 0 335 0
299 0 0 0 0 278 0
300 0 0 0 0 0 328
301 0 0 0 0 0 304
302 0 0 0 0 271 0
303 0 0 0 0 0 224
304 0 0 0 0 301 0
305 0 0 0 0 322 0
306 0 0 0 0 313 0
307 0 0 0 0 324 0
308 0 0 0 0 267 0
309 0 0 0 0 264 0
310 0 0 0 0 311 0
311 0 0 0 0 0 310
312 0 0 0 0 276 0
313 0 0 0 0 0 306
314 0 0 0 0 0 257
315 0 0 0 0 0 318
316 0 0 0 0 0 255
317 0 0 0 0 0 386
318 0 0 0 0 315 0
319 0 0 0 0 0 321
320 0 0 0 0 108 0
321 0 0 0 0 319 0
322 0 0 0 0 0 305
323 0 0 0 0 326 0
324 0 0 0 0 0 307
325 0 0 0 0 261 0
326 0 0 0 0 0 323
327 0 0 0 0 0 158
328 0 0 0 0 300 0
329 0 0 0 0 369 0
330 0 0 0 0 0 274
331 0 0 0 0 275 0
332 0 0 0 0 0 387
333 0 0 0 0 0 339
334 0 0 0 0 337 0
335 0 0 0 0 0 298
336 0 0 0 0 0 279
337 0 0 0 0 0 334
338 0 0 0 0 0 294
339 0 0 0 0 333 0
340 0 0 0 0 0 347
341 0 0 0 0 344 0
342 0 0 0 0 0 226
343 0 0 0 0 0 227
344 0 0 0 0 0 341
345 0 0 0 0 350 0
346 0 0 0 0 290 0
347 0 0 0 0 340 0
348 0 0 0 0 0 389
349 0 0 0 0 357 0
350 0 0 0 0 0 345
351 0 0 0 0 0 288
352 0 0 0 0 0 289
353 0 0 0 0 189 0
354 0 0 0 0 359 0
355 0 0 0 0 0 372
356 0 0 0 0 293 0
357 0 0 0 0 0 349
358 0 0 0 0 80 0
359 0 0 0 0 0 354
360 0 0 0 0 273 0
361 0 0 0 0 0 378
362 0 0 0 0 0 364
363 0 0 0 0 0 370
364 0 0 0 0 362 0
365 0 0 0 0 368 0
366 0 0 0 0 0 400
367 0 0 0 0 241 0
368 0 0 0 0 0 365
369 0 0 0 0 0 329
370 0 0 0 0 363 0
371 0 0 0 0 0 381
372 0 0 0 0 355 0
373 0 0 0 0 287 0
374 0 0 0 0 383 0
375 0 0 0 0 398 0
376 0 0 0 0 0 84
377 0 0 0 0 0 392
378 0 0 0 0 361 0
379 0 0 0 0 0 286
380 0 0 0 0 0 414
381 0 0 0 0 371 0
382 0 0 0 0 0 284
383 0 0 0 0 0 374
384 0 0 0 0 397 0
385 0 0 0 0 296 0
386 0 0 0 0 317 0
387 0 0 0 0 332 0
388 0 0 0 0 0 429
389 0 0 0 0 348 0
390 0 0 0 0 0 420
391 0 0 0 0 393 0
392 0 0 0 0 377 0
393 0 0 0 0 0 391
394 0 0 0 0 0 396
395 0 0 0 0 412 0
396 0 0 0 0 394 0
397 0 0 0 0 0 384
398 0 0 0 0 0 375
399 0 0 0 0 0 406
400 0 0 0 0 366 0
401 0 0 0 0 0 417
402 0 0 0 0 0 404
403 0 0 0 0 0 411
404 0 0 0 0 402 0
405 0 0 0 0 0 428
406 0 0 0 0 399 0
407 0 0 0 0 422 0
408 0 0 0 0 409 0
409 0 0 0 0 0 408
410 0 0 0 0 424 0
411 0 0 0 0 403 0
412 0 0 0 0 0 395
413 0 0 0 0 434 0
414 0 0 0 0 380 0
415 0 0 0 0 419 0
416 0 0 0 0 418 0
417 0 0 0 0 401 0
418 0 0 0 0 0 416
419 0 0 0 0 0 415
420 0 0 0 0 390 0
421 0 0 0 0 231 0
422 0 0 0 0 0 407
423 0 0 0 0 0 425
424 0 0 0 0 0 410
425 0 0 0 0 423 0
426 0 0 0 0 0 438
427 0 0 0 0 433 0
428 0 0 0 0 405 0
429 0 0 0 0 388 0
430 0 0 0 0 432 0
431 0 0 0 0 216 0
432 0 0 0 0 0 430
433 0 0 0 0 0 427
434 0 0 0 0 0 413
435 0 0 0 0 436 0
436 0 0 0 0 0 435
437 0 0 0 0 277 0
438 0 0 0 0 426 0
439 0 0 0 0 229 0
DEPOT_SECTION
1 
-1
EOF
